n = 40;
m = 76;
w = [8,3,6,9,7,8,3,8,7,3,3,2,4,8,4,1,6,9,6,10,1,7,5,1,5,7,3,3,5,1,8,4,6,9,9,6,10,6,7,9,3,2,8,8,9,4,4,5,7,10,1,4,10,5,9,10,5,8,5,10,8,6,1,5,2,7,10,10,6,5,8,6,9,9,6,7];
edges = array2d(1..m, 1..2, [1,2,2,5,2,7,2,15,2,34,3,6,3,8,3,9,3,11,4,35,4,37,5,35,5,37,5,40,6,16,6,23,6,29,7,37,8,15,8,35,8,38,8,40,9,22,9,25,9,34,10,12,10,17,10,33,10,36,11,14,11,19,11,40,13,16,13,20,13,40,14,28,14,29,14,33,15,19,15,23,15,40,16,22,16,30,17,21,17,32,17,39,18,20,18,26,18,34,18,38,20,27,21,27,21,29,21,32,21,34,21,36,21,40,22,23,22,39,23,26,23,37,24,33,26,29,27,32,27,40,28,37,29,31,29,32,29,40,30,32,30,33,30,34,30,36,32,40,35,36,35,40]);
